(declare-const a Real)
(declare-const b Real)
(declare-const c Real)
(assert (= (* a b c) 1))
(assert (> a 0))
(assert (> b 0))
(assert (> c 0))
(assert (not (<= (+ (/ 1 3) (* -1 (pow a (/ -8 3)) (pow (* b c) (/ 7 3)) (pow (+ b (* 2 c)) -2)) (* -6 (pow a (/ 7 3)) (pow (+ 2 (* (pow b (/ 1 2)) (pow c (/ 1 2)))) -1) (pow (+ a (* 2 b)) -1) (pow (+ c (* 2 a)) -1))) 0)))
(check-sat)
(get-model)
(exit)